483 5
10 10 10 10 10 

0 0 0 0 0 0 3 2 14 26 
0 0 0 0 0 0 4 3 4 6 12 
10 0 0 0 1 0 4 11 9 7 5 
6 0 0 0 2 0 3 11 9 5 
7 0 0 0 4 0 2 10 8 
10 0 0 0 3 0 2 9 8 
8 0 0 0 1 0 1 8 
10 0 0 0 3 0 1 13 
7 0 0 0 5 0 1 13 
2 0 0 0 3 0 1 13 
1 0 0 0 2 0 1 13 
9 0 0 0 1 0 1 13 
0 0 0 0 0 0 1 38 
0 0 0 0 0 0 3 15 16 19 
3 0 0 1 0 0 5 24 23 22 21 17 
4 0 0 4 0 0 3 22 18 17 
9 0 0 4 0 0 1 20 
3 0 0 2 0 0 1 21 
2 0 0 3 0 0 1 20 
8 0 0 1 0 0 1 25 
5 0 0 2 0 0 1 25 
8 0 0 2 0 0 1 25 
3 0 0 2 0 0 1 25 
7 0 0 4 0 0 1 25 
0 0 0 0 0 0 1 38 
0 0 0 0 0 0 6 27 29 30 34 35 36 
9 0 0 0 0 1 1 28 
1 0 0 0 0 3 1 31 
9 0 0 0 0 3 1 33 
1 0 0 0 0 2 1 32 
1 0 0 0 0 2 1 37 
5 0 0 0 0 4 1 37 
7 0 0 0 0 4 1 37 
9 0 0 0 0 2 1 37 
10 0 0 0 0 1 1 37 
10 0 0 0 0 3 1 37 
0 0 0 0 0 0 1 38 
0 0 0 0 0 0 5 39 81 123 135 177 
0 0 0 0 0 0 5 40 42 44 46 48 
1 1 1 1 1 0 3 49 45 41 
1 4 3 5 3 0 2 50 43 
1 5 3 3 3 0 5 79 56 51 50 47 
8 2 3 1 4 0 5 79 56 55 51 47 
3 2 2 1 1 0 5 79 56 54 51 47 
3 2 1 2 2 0 9 79 68 64 59 58 56 55 54 53 
6 4 3 1 5 0 5 67 59 58 52 49 
8 3 4 3 2 0 8 68 67 62 60 59 58 57 52 
3 1 1 3 3 0 7 67 64 62 60 59 58 55 
6 3 2 5 3 0 3 68 62 50 
9 2 5 2 1 0 4 64 60 57 55 
5 2 2 2 1 0 4 67 66 62 61 
9 2 2 5 2 0 4 69 66 64 61 
4 1 3 2 2 0 3 67 62 60 
4 1 2 1 2 0 2 66 57 
7 3 1 4 1 0 4 73 72 69 63 
5 4 1 4 3 0 2 66 61 
8 3 3 4 2 0 3 78 72 63 
10 1 1 1 5 0 3 78 73 63 
7 2 1 2 4 0 3 78 72 63 
2 4 2 4 3 0 3 78 72 65 
2 2 4 1 5 0 2 78 63 
1 5 4 3 1 0 4 78 76 72 70 
4 1 3 2 1 0 1 65 
10 1 3 1 3 0 4 78 77 76 72 
7 2 2 3 3 0 3 76 71 70 
8 5 2 3 4 0 3 76 73 71 
3 5 1 2 2 0 2 77 69 
4 1 4 2 1 0 1 69 
7 1 2 2 2 0 4 78 76 75 74 
2 1 4 1 3 0 2 77 74 
2 2 2 6 2 0 2 75 74 
2 6 4 2 2 0 2 75 74 
4 3 4 2 3 0 1 77 
5 2 3 1 2 0 1 80 
8 3 1 2 2 0 1 80 
7 1 2 3 2 0 1 80 
4 3 3 3 4 0 1 80 
10 2 3 3 3 0 1 80 
3 2 3 2 2 0 1 80 
0 0 0 0 0 0 1 483 
0 0 0 0 0 0 3 82 83 87 
1 1 1 1 1 0 4 89 86 85 84 
6 4 2 2 4 0 4 96 93 91 88 
6 1 1 2 3 0 6 108 96 94 93 92 91 
6 4 4 2 3 0 5 104 96 92 91 90 
9 1 3 2 2 0 3 96 91 88 
8 4 2 2 5 0 3 94 91 89 
7 3 2 2 1 0 4 104 97 95 90 
9 6 2 2 4 0 7 108 106 105 104 103 97 96 
8 3 3 4 1 0 5 108 106 100 99 94 
9 1 2 4 5 0 4 106 100 98 95 
2 2 1 2 4 0 7 105 103 102 100 99 98 97 
4 1 1 1 2 0 6 107 104 103 102 100 97 
2 3 1 1 3 0 6 109 105 103 102 101 98 
5 2 4 1 1 0 6 109 105 103 102 101 99 
4 3 1 1 2 0 5 102 101 100 99 98 
6 1 2 3 2 0 3 112 109 101 
10 1 2 5 5 0 3 114 110 107 
9 3 4 2 2 0 3 114 110 107 
9 4 5 1 2 0 3 114 112 110 
10 2 4 4 4 0 3 114 113 111 
1 1 2 2 2 0 3 113 112 111 
2 3 3 2 4 0 3 113 112 111 
8 2 2 4 2 0 3 113 112 111 
10 2 2 2 1 0 2 114 110 
6 1 2 3 5 0 2 112 110 
4 2 3 3 1 0 4 116 115 113 112 
4 1 2 3 3 0 4 116 115 113 112 
1 2 1 4 3 0 1 110 
9 2 5 3 1 0 2 121 111 
2 3 2 6 3 0 3 120 116 115 
9 3 2 1 2 0 4 120 119 118 117 
8 2 3 4 1 0 4 121 120 118 117 
8 5 3 3 3 0 1 115 
5 2 3 2 2 0 3 119 118 117 
3 1 4 3 1 0 3 119 118 117 
8 6 2 1 3 0 1 122 
3 3 4 4 2 0 1 122 
7 3 2 2 2 0 1 122 
10 3 1 2 2 0 1 122 
8 3 5 2 1 0 1 122 
0 0 0 0 0 0 1 483 
0 0 0 0 0 0 5 124 125 126 128 129 
8 1 0 0 0 0 4 133 131 130 127 
6 3 0 0 0 0 3 132 131 130 
8 3 0 0 0 0 2 131 130 
2 2 0 0 0 0 1 132 
2 2 0 0 0 0 1 131 
5 1 0 0 0 0 1 130 
9 2 0 0 0 0 1 134 
1 3 0 0 0 0 1 134 
6 3 0 0 0 0 1 134 
8 5 0 0 0 0 1 134 
0 0 0 0 0 0 5 219 251 263 295 327 
0 0 0 0 0 0 6 136 141 143 144 148 156 
10 1 1 1 0 1 4 145 142 139 137 
7 1 3 3 0 2 1 138 
10 3 2 2 0 3 8 175 174 167 163 157 152 151 140 
5 3 2 4 0 2 7 175 167 162 158 152 151 147 
9 2 1 5 0 3 6 173 162 159 158 153 146 
2 3 4 3 0 3 6 173 162 160 158 152 150 
6 3 4 2 0 2 5 173 162 160 152 150 
10 4 2 2 0 2 5 174 173 163 161 146 
5 6 2 2 0 1 4 174 167 157 150 
4 1 3 4 0 1 3 174 159 149 
8 2 4 3 0 4 2 166 149 
10 1 4 2 0 2 2 173 150 
4 5 1 2 0 2 2 163 154 
3 3 3 3 0 4 2 172 154 
4 2 2 2 0 3 2 166 154 
9 1 2 1 0 4 2 173 154 
2 2 7 2 0 3 2 172 155 
10 3 3 1 0 3 2 172 155 
4 3 2 1 0 3 1 155 
6 2 2 3 0 2 4 171 168 165 164 
4 2 3 4 0 2 2 170 161 
3 2 1 2 0 3 3 171 169 168 
2 4 2 1 0 1 1 161 
3 1 3 1 0 3 1 161 
8 1 3 2 0 2 1 163 
10 3 3 3 0 4 2 172 168 
3 2 2 4 0 3 2 172 168 
1 1 1 3 0 2 1 166 
8 2 2 1 0 1 1 170 
7 2 1 3 0 3 1 169 
3 2 1 5 0 2 1 169 
1 2 2 2 0 3 1 173 
4 3 2 2 0 3 1 176 
10 2 2 2 0 2 1 176 
3 5 3 4 0 1 1 176 
5 2 2 5 0 3 1 176 
4 3 5 2 0 1 1 176 
7 4 3 4 0 4 1 176 
8 4 3 1 0 3 1 176 
7 2 2 1 0 4 1 176 
0 0 0 0 0 0 1 483 
0 0 0 0 0 0 5 178 182 183 184 188 
3 1 1 0 1 1 4 194 186 181 179 
10 1 2 0 1 4 2 197 180 
1 4 2 0 6 1 8 217 203 198 193 192 191 187 185 
9 2 3 0 6 3 11 217 206 204 203 202 200 196 195 193 191 190 
4 1 2 0 3 1 7 206 205 202 198 196 189 186 
4 2 4 0 3 2 6 204 203 193 192 191 185 
1 1 1 0 3 1 3 198 190 187 
10 2 4 0 4 5 6 206 205 202 200 196 189 
6 1 2 0 2 3 4 200 197 193 192 
8 2 3 0 3 3 4 205 204 202 195 
3 4 3 0 2 3 3 208 203 193 
1 4 2 0 3 2 3 211 210 195 
10 6 3 0 1 3 2 211 192 
4 1 2 0 1 2 3 216 205 199 
6 2 2 0 2 2 3 216 210 199 
6 3 1 0 2 3 3 216 211 199 
2 3 3 0 3 1 2 204 202 
4 2 2 0 1 1 2 216 199 
8 2 2 0 1 2 2 216 199 
10 4 1 0 1 1 2 208 203 
7 4 1 0 3 4 2 210 201 
8 5 1 0 2 1 1 201 
5 2 1 0 2 1 5 216 215 214 212 210 
4 3 4 0 4 3 3 215 209 207 
9 3 3 0 2 3 3 213 212 208 
10 1 2 0 4 1 2 210 207 
1 2 6 0 2 2 2 210 207 
7 3 3 0 2 1 3 213 212 211 
1 2 6 0 6 1 2 212 208 
6 2 1 0 4 1 2 214 212 
6 1 4 0 4 6 2 216 215 
5 5 2 0 1 4 1 213 
2 3 3 0 4 3 1 213 
2 2 2 0 1 2 1 214 
6 4 3 0 1 2 1 218 
6 2 2 0 2 5 1 218 
5 1 4 0 2 5 1 218 
6 4 1 0 1 2 1 218 
5 2 2 0 3 4 1 218 
4 1 4 0 1 5 1 218 
0 0 0 0 0 0 1 483 
0 0 0 0 0 0 6 220 221 222 223 224 249 
6 1 0 0 1 1 5 231 228 227 226 225 
9 4 0 0 3 2 5 248 229 228 227 225 
10 5 0 0 2 5 4 235 228 226 225 
5 2 0 0 3 2 4 231 228 227 225 
8 2 0 0 1 2 2 247 226 
5 1 0 0 4 2 3 237 234 230 
2 1 0 0 2 4 3 246 233 229 
2 3 0 0 1 5 6 245 244 243 240 237 235 
8 3 0 0 3 1 2 237 232 
4 3 0 0 1 3 1 232 
8 2 0 0 1 3 1 232 
10 1 0 0 2 2 1 232 
5 1 0 0 1 2 5 245 244 243 240 236 
10 5 0 0 2 2 5 245 244 243 242 236 
9 2 0 0 2 2 5 246 244 243 242 238 
2 3 0 0 2 1 2 246 236 
4 3 0 0 4 1 1 238 
10 1 0 0 2 1 2 246 242 
6 2 0 0 5 2 1 239 
4 3 0 0 2 4 1 241 
5 3 0 0 3 3 1 242 
1 1 0 0 5 2 1 250 
1 2 0 0 2 2 1 250 
2 4 0 0 2 2 1 250 
6 4 0 0 4 3 1 250 
4 2 0 0 3 2 1 250 
9 2 0 0 3 3 1 250 
6 2 0 0 4 3 1 250 
8 4 0 0 1 7 1 250 
2 3 0 0 4 1 1 250 
0 0 0 0 0 0 1 483 
0 0 0 0 0 0 5 252 254 255 260 261 
8 0 0 0 0 1 3 259 256 253 
3 0 0 0 0 4 2 258 257 
4 0 0 0 0 3 1 256 
1 0 0 0 0 2 1 256 
2 0 0 0 0 2 1 262 
2 0 0 0 0 2 1 262 
2 0 0 0 0 2 1 262 
8 0 0 0 0 2 1 262 
1 0 0 0 0 4 1 262 
5 0 0 0 0 3 1 262 
0 0 0 0 0 0 5 359 381 403 425 447 
0 0 0 0 0 0 6 264 265 266 268 272 293 
2 0 1 1 1 0 4 277 271 269 267 
7 0 4 2 2 0 6 289 288 287 277 274 270 
3 0 5 2 5 0 7 292 289 286 284 281 280 271 
10 0 3 3 4 0 4 288 284 281 270 
1 0 2 2 3 0 4 291 289 274 270 
2 0 3 2 1 0 3 285 275 273 
1 0 1 3 1 0 2 285 273 
10 0 3 5 6 0 5 288 287 285 283 276 
9 0 2 1 2 0 4 290 279 277 275 
3 0 2 2 1 0 3 286 280 276 
9 0 2 2 1 0 1 276 
9 0 3 2 3 0 2 284 280 
5 0 2 4 1 0 1 278 
8 0 3 5 2 0 2 284 282 
8 0 2 2 4 0 1 279 
9 0 1 3 2 0 1 282 
8 0 2 4 4 0 1 283 
3 0 3 1 3 0 1 287 
7 0 2 2 3 0 1 294 
9 0 2 1 1 0 1 294 
10 0 3 2 4 0 1 294 
2 0 3 2 1 0 1 294 
7 0 3 5 3 0 1 294 
3 0 2 2 2 0 1 294 
3 0 2 3 1 0 1 294 
5 0 1 3 3 0 1 294 
8 0 5 1 4 0 1 294 
9 0 2 2 2 0 1 294 
9 0 4 1 2 0 1 294 
4 0 2 5 3 0 1 294 
0 0 0 0 0 0 1 483 
0 0 0 0 0 0 7 296 298 300 301 304 324 325 
5 1 0 1 1 0 4 318 306 299 297 
10 1 0 2 1 0 3 317 311 302 
8 2 0 3 3 0 5 323 322 319 314 303 
7 3 0 2 1 0 4 320 314 310 303 
1 3 0 2 3 0 4 319 318 314 303 
4 2 0 2 2 0 5 321 319 316 307 306 
7 2 0 1 1 0 2 314 303 
1 1 0 2 3 0 3 315 309 305 
9 2 0 4 3 0 2 318 310 
4 4 0 2 1 0 1 307 
6 2 0 4 4 0 2 317 314 
8 3 0 4 2 0 1 308 
8 2 0 4 3 0 1 312 
7 3 0 1 2 0 1 313 
8 4 0 1 4 0 1 313 
10 3 0 3 3 0 1 316 
5 1 0 2 3 0 1 326 
1 4 0 4 3 0 1 326 
8 2 0 2 3 0 1 326 
7 4 0 1 2 0 1 326 
2 3 0 2 3 0 1 326 
6 4 0 3 3 0 1 326 
2 1 0 4 1 0 1 326 
5 1 0 4 3 0 1 326 
9 3 0 2 5 0 1 326 
1 2 0 4 3 0 1 326 
3 3 0 4 3 0 1 326 
7 4 0 1 2 0 1 326 
10 3 0 2 2 0 1 326 
4 2 0 2 2 0 1 326 
0 0 0 0 0 0 1 483 
0 0 0 0 0 0 6 328 329 330 331 332 333 
10 1 1 0 0 1 3 336 335 334 
2 2 3 0 0 4 3 345 336 334 
7 5 1 0 0 1 2 336 334 
7 2 4 0 0 4 3 339 338 335 
4 1 2 0 0 2 3 339 338 335 
2 1 1 0 0 3 2 335 334 
8 7 3 0 0 1 5 343 341 340 338 337 
3 2 3 0 0 2 5 345 343 341 340 337 
8 2 4 0 0 2 2 342 339 
9 3 4 0 0 3 3 347 346 344 
5 1 1 0 0 1 3 347 346 344 
9 4 2 0 0 2 3 347 346 344 
4 1 2 0 0 4 2 347 344 
8 3 2 0 0 4 2 347 344 
5 2 1 0 0 3 2 347 344 
9 2 3 0 0 2 1 344 
1 4 3 0 0 4 3 354 349 348 
9 4 2 0 0 2 2 348 346 
10 3 2 0 0 1 4 357 354 352 350 
6 1 3 0 0 3 3 354 350 348 
2 1 2 0 0 2 2 352 351 
3 2 4 0 0 3 2 357 350 
6 1 4 0 0 3 1 351 
2 3 3 0 0 2 2 356 355 
4 7 2 0 0 2 1 353 
7 4 4 0 0 3 1 355 
10 2 1 0 0 3 1 356 
1 2 1 0 0 2 1 358 
7 1 5 0 0 2 1 358 
5 1 2 0 0 4 1 358 
0 0 0 0 0 0 1 483 
0 0 0 0 0 0 6 360 361 362 363 366 367 
4 0 1 0 1 0 4 379 369 368 365 
2 0 2 0 3 0 3 379 372 364 
7 0 3 0 2 0 4 378 371 369 368 
4 0 4 0 7 0 3 372 370 368 
7 0 3 0 3 0 4 378 374 369 368 
9 0 1 0 2 0 5 378 377 376 374 372 
2 0 2 0 2 0 5 378 377 376 374 372 
5 0 1 0 4 0 3 379 372 368 
3 0 3 0 2 0 3 377 376 375 
6 0 3 0 2 0 2 377 373 
5 0 2 0 2 0 2 379 374 
10 0 3 0 3 0 2 376 374 
3 0 4 0 1 0 1 373 
8 0 2 0 4 0 1 375 
5 0 2 0 2 0 1 375 
4 0 3 0 1 0 1 380 
8 0 1 0 2 0 1 380 
2 0 2 0 4 0 1 380 
4 0 4 0 2 0 1 380 
9 0 4 0 1 0 1 380 
0 0 0 0 0 0 1 483 
0 0 0 0 0 0 7 382 383 384 386 387 388 389 
9 1 0 1 0 0 3 401 393 385 
5 2 0 2 0 0 6 401 400 398 395 393 391 
8 2 0 5 0 0 5 401 396 395 393 390 
10 2 0 3 0 0 4 400 395 391 390 
7 2 0 3 0 0 4 400 395 392 391 
2 4 0 3 0 0 5 400 399 398 395 393 
7 3 0 1 0 0 5 400 399 398 395 393 
1 2 0 1 0 0 3 401 393 390 
6 3 0 2 0 0 3 399 398 397 
9 2 0 2 0 0 2 399 394 
5 3 0 3 0 0 2 398 397 
4 3 0 1 0 0 1 394 
9 2 0 2 0 0 1 397 
9 1 0 4 0 0 1 397 
6 4 0 2 0 0 1 397 
9 3 0 3 0 0 1 402 
1 1 0 4 0 0 1 402 
4 4 0 1 0 0 1 402 
6 2 0 5 0 0 1 402 
6 4 0 2 0 0 1 402 
0 0 0 0 0 0 1 483 
0 0 0 0 0 0 8 404 405 406 407 408 413 414 423 
5 0 1 0 1 0 5 422 421 420 419 411 
9 0 1 0 1 0 3 419 418 409 
6 0 1 0 3 0 3 420 419 412 
6 0 3 0 3 0 3 419 418 411 
5 0 5 0 2 0 2 418 410 
7 0 1 0 3 0 4 421 420 417 415 
9 0 3 0 3 0 1 411 
4 0 3 0 3 0 2 417 415 
9 0 2 0 1 0 2 417 415 
1 0 3 0 3 0 2 417 415 
7 0 1 0 2 0 2 422 418 
4 0 5 0 5 0 1 416 
10 0 2 0 5 0 1 424 
9 0 2 0 4 0 1 424 
5 0 5 0 1 0 1 424 
3 0 1 0 4 0 1 424 
10 0 2 0 1 0 1 424 
2 0 2 0 1 0 1 424 
2 0 4 0 2 0 1 424 
1 0 3 0 2 0 1 424 
0 0 0 0 0 0 1 483 
0 0 0 0 0 0 6 426 427 428 429 430 431 
7 0 0 0 1 1 5 445 439 434 433 432 
4 0 0 0 4 5 6 445 443 442 436 435 434 
8 0 0 0 3 3 4 445 444 433 432 
2 0 0 0 3 3 4 445 444 436 432 
5 0 0 0 2 2 5 444 443 442 436 435 
6 0 0 0 1 1 3 445 444 432 
2 0 0 0 1 3 4 443 442 438 437 
3 0 0 0 5 2 3 443 442 436 
5 0 0 0 3 5 3 444 441 438 
10 0 0 0 3 2 2 438 437 
8 0 0 0 2 2 2 441 438 
9 0 0 0 3 3 2 441 440 
5 0 0 0 3 3 1 440 
1 0 0 0 2 2 1 440 
3 0 0 0 1 2 1 446 
8 0 0 0 4 5 1 446 
6 0 0 0 2 1 1 446 
6 0 0 0 2 2 1 446 
8 0 0 0 4 1 1 446 
7 0 0 0 1 2 1 446 
0 0 0 0 0 0 1 483 
0 0 0 0 0 0 4 448 450 451 457 
6 0 0 0 1 0 3 456 455 449 
3 0 0 0 1 0 2 453 452 
9 0 0 0 3 0 1 454 
8 0 0 0 3 0 1 452 
7 0 0 0 3 0 1 458 
8 0 0 0 2 0 1 458 
6 0 0 0 4 0 1 458 
5 0 0 0 2 0 1 458 
10 0 0 0 4 0 1 458 
3 0 0 0 2 0 1 458 
0 0 0 0 0 0 2 459 471 
0 0 0 0 0 0 4 460 461 462 463 
9 0 0 0 0 1 5 469 468 467 466 464 
1 0 0 0 0 2 3 468 467 464 
10 0 0 0 0 4 3 468 466 465 
3 0 0 0 0 5 3 467 466 465 
9 0 0 0 0 1 1 465 
5 0 0 0 0 1 1 470 
8 0 0 0 0 3 1 470 
6 0 0 0 0 1 1 470 
10 0 0 0 0 3 1 470 
6 0 0 0 0 4 1 470 
0 0 0 0 0 0 1 483 
0 0 0 0 0 0 2 472 473 
9 0 0 0 1 0 3 481 480 475 
2 0 0 0 4 0 2 478 474 
3 0 0 0 3 0 3 479 477 476 
5 0 0 0 2 0 3 478 477 476 
10 0 0 0 3 0 1 482 
1 0 0 0 2 0 1 482 
2 0 0 0 2 0 1 482 
7 0 0 0 3 0 1 482 
4 0 0 0 3 0 1 482 
10 0 0 0 2 0 1 482 
0 0 0 0 0 0 1 483 
0 0 0 0 0 0 0 
